% File represents an instance of a Composite Structure problem to be solved by a CP framework
% Created on 2025-03-26 10:41:19.623
T = 58;
n = 9;
m = 12;
edges = [(1, 2),
(5, 4),
(8, 7),
(3, 2),
(6, 5),
(9, 8),
(4, 1),
(7, 4),
(5, 2),
(8, 5),
(6, 3),
(9, 6)];
counts = [|20, 4, 20, 4,
|20, 4, 20, 2,
|20, 8, 20, 4,
|20, 6, 20, 4,
|20, 8, 20, 4,
|20, 10, 20, 4,
|20, 6, 20, 8,
|20, 8, 20, 8,
|20, 10, 20, 8|];
